0
Node Left Objective IInf Best_Integer Best_Bound ItCnt Gap
0+ 0 nan nan 1364.7233 0.0000 nan 100.00%
0 0 812.3838 7 1364.7233 812.3838 13 40.47%
0+ 0 nan nan 885.8805 812.3838 nan 8.30%
0 0 838.3626 7 885.8805 Cuts:9 57 5.36%
0+ 0 nan nan 856.8252 838.3626 nan 2.15%
0 0 842.4956 8 856.8252 Fract:2 73 1.67%
0 0 844.6790 7 856.8252 Cuts:4 88 1.42%
0 2 852.9792 3 856.8252 853.5485 88 0.38%
CPXPARAM_MIP_Cuts_Gomory-FlowCovers:Gomory 2
CPXPARAM_MIP_Cuts_Gomory-FlowCovers:FlowCovers 5
1
Node Left Objective IInf Best_Integer Best_Bound ItCnt Gap
0+ 0 nan nan 1364.7233 0.0000 nan 100.00%
0 0 0 766.7363 766.7363 12 0.00% 0
CPXPARAM_MIP_Cuts_Gomory-FlowCovers:Gomory 0
CPXPARAM_MIP_Cuts_Gomory-FlowCovers:FlowCovers 0
2
Node Left Objective IInf Best_Integer Best_Bound ItCnt Gap
0+ 0 nan nan 1364.7233 0.0000 nan 100.00%
0 0 849.1057 4 1364.7233 849.1057 13 37.78%
0+ 0 nan nan 927.4832 849.1057 nan 8.45%
0 2 849.1057 4 927.4832 855.5879 13 7.75%
CPXPARAM_MIP_Cuts_Gomory-FlowCovers:Gomory 0
CPXPARAM_MIP_Cuts_Gomory-FlowCovers:FlowCovers 0
3
Node Left Objective IInf Best_Integer Best_Bound ItCnt Gap
0+ 0 nan nan 1364.7233 0.0000 nan 100.00%
0 0 0 810.4664 810.4664 13 0.00% 0
CPXPARAM_MIP_Cuts_Gomory-FlowCovers:Gomory 0
CPXPARAM_MIP_Cuts_Gomory-FlowCovers:FlowCovers 0
4
Node Left Objective IInf Best_Integer Best_Bound ItCnt Gap
0+ 0 nan nan 1151.9244 0.0000 nan 100.00%
0 0 855.2412 6 1151.9244 855.2412 15 25.76%
0+ 0 nan nan 894.7140 855.2412 nan 4.41%
0 0 874.0470 6 894.7140 Cuts:9 57 2.31%
0 0 876.7945 6 894.7140 Cuts:5 87 2.00%
0 0 881.4879 6 894.7140 Cuts:7 115 1.48%
0 0 884.1607 5 894.7140 Cuts:6 151 1.18%
0 0 884.8459 5 894.7140 Fract:3 175 1.10%
0 0 885.3406 6 894.7140 Cuts:3 192 1.05%
0 0 885.4053 6 894.7140 Flowcuts:1 196 1.04%
0 0 cutoff 894.7140 885.4053 196 1.04% 0
CPXPARAM_MIP_Cuts_Gomory-FlowCovers:Gomory 1
CPXPARAM_MIP_Cuts_Gomory-FlowCovers:FlowCovers 7
5
Node Left Objective IInf Best_Integer Best_Bound ItCnt Gap
0+ 0 nan nan 1151.9244 0.0000 nan 100.00%
0 0 0 821.2754 821.2754 13 0.00% 0
CPXPARAM_MIP_Cuts_Gomory-FlowCovers:Gomory 0
CPXPARAM_MIP_Cuts_Gomory-FlowCovers:FlowCovers 0
6
Node Left Objective IInf Best_Integer Best_Bound ItCnt Gap
0+ 0 nan nan 1151.9244 0.0000 nan 100.00%
0 0 848.1016 7 1151.9244 848.1016 14 26.38%
0+ 0 nan nan 893.0055 848.1016 nan 5.03%
0 0 857.9241 5 893.0055 Fract:6 34 3.93%
0 0 869.1132 6 893.0055 Fract:5 60 2.68%
0 0 871.6292 5 893.0055 Fract:6 76 2.39%
0 0 875.4096 5 893.0055 Fract:6 102 1.97%
0 0 880.0422 6 893.0055 Fract:4 122 1.45%
0 0 883.9726 4 893.0055 Fract:4 134 1.01%
0 0 885.4905 5 893.0055 Fract:3 152 0.84%
0 0 cutoff 893.0055 885.4905 152 0.84% 0
CPXPARAM_MIP_Cuts_Gomory-FlowCovers:Gomory 0
CPXPARAM_MIP_Cuts_Gomory-FlowCovers:FlowCovers 7
7
Node Left Objective IInf Best_Integer Best_Bound ItCnt Gap
0+ 0 nan nan 1151.9244 0.0000 nan 100.00%
0 0 0 856.3791 856.3791 13 0.00% 0
CPXPARAM_MIP_Cuts_Gomory-FlowCovers:Gomory 0
CPXPARAM_MIP_Cuts_Gomory-FlowCovers:FlowCovers 0
8
Node Left Objective IInf Best_Integer Best_Bound ItCnt Gap
0+ 0 nan nan 1316.0374 0.0000 nan 100.00%
0 0 1031.3988 5 1316.0374 1031.3988 13 21.63%
0+ 0 nan nan 1044.6951 1031.3988 nan 1.27%
0 0 1037.5290 5 1044.6951 Fract:4 25 0.69%
0 0 1040.1022 6 1044.6951 Fract:5 44 0.44%
0 0 cutoff 1044.6951 1040.1022 44 0.44% 0
CPXPARAM_MIP_Cuts_Gomory-FlowCovers:Gomory 0
CPXPARAM_MIP_Cuts_Gomory-FlowCovers:FlowCovers 4
9
Node Left Objective IInf Best_Integer Best_Bound ItCnt Gap
0+ 0 nan nan 1316.0374 0.0000 nan 100.00%
0 0 0 1027.4893 1027.4893 13 0.00% 0
CPXPARAM_MIP_Cuts_Gomory-FlowCovers:Gomory 0
CPXPARAM_MIP_Cuts_Gomory-FlowCovers:FlowCovers 0
10
Node Left Objective IInf Best_Integer Best_Bound ItCnt Gap
0+ 0 nan nan 1316.0374 0.0000 nan 100.00%
0 0 1010.7686 6 1316.0374 1010.7686 13 23.20%
0+ 0 nan nan 1158.6365 1010.7686 nan 12.76%
0 0 1028.4921 7 1158.6365 Fract:6 37 11.23%
0 0 1035.7947 7 1158.6365 Fract:4 44 10.60%
0+ 0 nan nan 1103.7605 1035.7947 nan 6.16%
0 0 1037.1629 7 1103.7605 Fract:1 48 6.03%
0 2 1041.2123 6 1103.7605 1043.1083 48 5.50%
CPXPARAM_MIP_Cuts_Gomory-FlowCovers:Gomory 0
CPXPARAM_MIP_Cuts_Gomory-FlowCovers:FlowCovers 3
11
Node Left Objective IInf Best_Integer Best_Bound ItCnt Gap
0+ 0 nan nan 1316.0374 0.0000 nan 100.00%
0 0 0 1010.7933 1010.7933 12 0.00% 0
CPXPARAM_MIP_Cuts_Gomory-FlowCovers:Gomory 0
CPXPARAM_MIP_Cuts_Gomory-FlowCovers:FlowCovers 0
12
Node Left Objective IInf Best_Integer Best_Bound ItCnt Gap
0+ 0 nan nan 1103.5671 0.0000 nan 100.00%
0 0 916.9072 6 1103.5671 916.9072 15 16.91%
0+ 0 nan nan 946.5019 916.9072 nan 3.13%
0 0 934.4792 7 946.5019 Cuts:5 33 1.27%
0 0 936.9664 4 946.5019 Fract:2 47 1.01%
0 0 940.1456 7 946.5019 Fract:4 58 0.67%
0 0 940.1697 7 946.5019 Fract:1 59 0.67%
0 0 940.6625 6 946.5019 Fract:1 64 0.62%
0 0 cutoff 946.5019 940.6625 64 0.62% 0
CPXPARAM_MIP_Cuts_Gomory-FlowCovers:Gomory 0
CPXPARAM_MIP_Cuts_Gomory-FlowCovers:FlowCovers 4
13
Node Left Objective IInf Best_Integer Best_Bound ItCnt Gap
0+ 0 nan nan 1103.5671 0.0000 nan 100.00%
0 0 0 885.9934 885.9934 13 0.00% 0
CPXPARAM_MIP_Cuts_Gomory-FlowCovers:Gomory 0
CPXPARAM_MIP_Cuts_Gomory-FlowCovers:FlowCovers 0
14
Node Left Objective IInf Best_Integer Best_Bound ItCnt Gap
0+ 0 nan nan 1103.5671 0.0000 nan 100.00%
0 0 914.6304 6 1103.5671 914.6304 12 17.12%
0+ 0 nan nan 964.0418 914.6304 nan 5.13%
0 0 930.3214 7 964.0418 Fract:6 34 3.50%
0+ 0 nan nan 953.0590 930.3214 nan 2.39%
0 0 933.0969 6 953.0590 Fract:4 46 2.09%
0 0 934.8466 7 953.0590 Fract:4 52 1.91%
0 2 934.8466 7 953.0590 935.2093 52 1.87%
CPXPARAM_MIP_Cuts_Gomory-FlowCovers:Gomory 0
CPXPARAM_MIP_Cuts_Gomory-FlowCovers:FlowCovers 3
15
Node Left Objective IInf Best_Integer Best_Bound ItCnt Gap
0+ 0 nan nan 1103.5671 0.0000 nan 100.00%
0 0 0 904.1924 904.1924 15 0.00% 0
CPXPARAM_MIP_Cuts_Gomory-FlowCovers:Gomory 0
CPXPARAM_MIP_Cuts_Gomory-FlowCovers:FlowCovers 0
16
Node Left Objective IInf Best_Integer Best_Bound ItCnt Gap
0+ 0 nan nan 1092.9842 0.0000 nan 100.00%
0 0 944.0122 4 1092.9842 944.0122 12 13.63%
0+ 0 nan nan 1000.0559 944.0122 nan 5.60%
0 0 948.8132 6 1000.0559 Cuts:4 24 5.12%
0+ 0 nan nan 958.8215 948.8132 nan 1.04%
0 0 951.5122 7 958.8215 Cuts:11 40 0.76%
0 0 952.2245 7 958.8215 Fract:4 52 0.69%
0 1 954.6763 2 958.8215 954.8988 52 0.41%
CPXPARAM_MIP_Cuts_Gomory-FlowCovers:Gomory 0
CPXPARAM_MIP_Cuts_Gomory-FlowCovers:FlowCovers 6
17
Node Left Objective IInf Best_Integer Best_Bound ItCnt Gap
0+ 0 nan nan 1092.9842 0.0000 nan 100.00%
0 0 0 946.0220 946.0220 13 0.00% 0
CPXPARAM_MIP_Cuts_Gomory-FlowCovers:Gomory 0
CPXPARAM_MIP_Cuts_Gomory-FlowCovers:FlowCovers 0
18
Node Left Objective IInf Best_Integer Best_Bound ItCnt Gap
0+ 0 nan nan 1092.9842 0.0000 nan 100.00%
0 0 946.0669 5 1092.9842 946.0669 12 13.44%
0+ 0 nan nan 990.2970 946.0669 nan 4.47%
0 0 952.7415 5 990.2970 Cuts:7 28 3.79%
0 0 957.6894 8 990.2970 Fract:3 54 3.29%
0 0 960.0286 8 990.2970 Fract:3 69 3.06%
0+ 0 nan nan 974.9566 960.0286 nan 1.53%
0 2 960.8815 6 974.9566 960.8826 69 1.44%
CPXPARAM_MIP_Cuts_Gomory-FlowCovers:Gomory 0
CPXPARAM_MIP_Cuts_Gomory-FlowCovers:FlowCovers 4
19
Node Left Objective IInf Best_Integer Best_Bound ItCnt Gap
0+ 0 nan nan 1092.9842 0.0000 nan 100.00%
0 0 0 957.8379 957.8379 13 0.00% 0
CPXPARAM_MIP_Cuts_Gomory-FlowCovers:Gomory 0
CPXPARAM_MIP_Cuts_Gomory-FlowCovers:FlowCovers 0
20
Node Left Objective IInf Best_Integer Best_Bound ItCnt Gap
0+ 0 nan nan 933.7925 0.0000 nan 100.00%
0 0 651.1616 5 933.7925 651.1616 13 30.27%
0+ 0 nan nan 683.4260 651.1616 nan 4.72%
0 0 661.0678 5 683.4260 Cuts:9 24 3.27%
0 0 cutoff 683.4260 661.0678 24 3.27% 0
CPXPARAM_MIP_Cuts_Gomory-FlowCovers:Gomory 0
CPXPARAM_MIP_Cuts_Gomory-FlowCovers:FlowCovers 3
21
Node Left Objective IInf Best_Integer Best_Bound ItCnt Gap
0+ 0 nan nan 933.7925 0.0000 nan 100.00%
0 0 0 606.4076 606.4076 13 0.00% 0
CPXPARAM_MIP_Cuts_Gomory-FlowCovers:Gomory 0
CPXPARAM_MIP_Cuts_Gomory-FlowCovers:FlowCovers 0
22
Node Left Objective IInf Best_Integer Best_Bound ItCnt Gap
0+ 0 nan nan 933.7925 0.0000 nan 100.00%
0 0 647.5968 4 933.7925 647.5968 14 30.65%
0+ 0 nan nan 677.8496 647.5968 nan 4.46%
0 0 655.9232 4 677.8496 Fract:3 24 3.23%
0 0 665.4443 4 677.8496 Fract:4 36 1.83%
0 0 671.3172 4 677.8496 Fract:4 58 0.96%
0 0 673.8627 5 677.8496 Fract:2 90 0.59%
0 0 674.0540 5 677.8496 Fract:3 104 0.56%
0 0 674.4650 4 677.8496 Fract:3 115 0.50%
0 0 cutoff 677.8496 674.4650 115 0.50% 0
CPXPARAM_MIP_Cuts_Gomory-FlowCovers:Gomory 0
CPXPARAM_MIP_Cuts_Gomory-FlowCovers:FlowCovers 6
23
Node Left Objective IInf Best_Integer Best_Bound ItCnt Gap
0+ 0 nan nan 933.7925 0.0000 nan 100.00%
0 0 0 599.6998 599.6998 14 0.00% 0
CPXPARAM_MIP_Cuts_Gomory-FlowCovers:Gomory 0
CPXPARAM_MIP_Cuts_Gomory-FlowCovers:FlowCovers 0
24
Node Left Objective IInf Best_Integer Best_Bound ItCnt Gap
0+ 0 nan nan 945.0450 0.0000 nan 100.00%
0 0 718.6017 7 945.0450 718.6017 14 23.96%
0+ 0 nan nan 876.9088 718.6017 nan 18.05%
0 0 725.6602 7 876.9088 Cuts:8 34 17.25%
0+ 0 nan nan 799.6324 725.6602 nan 9.25%
0 0 728.0040 7 799.6324 Fract:4 47 8.96%
0+ 0 nan nan 762.2628 728.0040 nan 4.49%
0 0 728.1388 8 762.2628 Cuts:6 56 4.48%
0 0 730.0357 6 762.2628 Cuts:4 81 4.23%
0 0 730.9867 6 762.2628 Cuts:8 96 4.10%
0 0 733.2305 8 762.2628 Cuts:11 122 3.81%
0 0 733.9004 8 762.2628 Cuts:2 138 3.72%
0 2 736.8425 4 762.2628 737.5302 138 3.24%
CPXPARAM_MIP_Cuts_Gomory-FlowCovers:Gomory 3
CPXPARAM_MIP_Cuts_Gomory-FlowCovers:FlowCovers 4
25
Node Left Objective IInf Best_Integer Best_Bound ItCnt Gap
0+ 0 nan nan 945.0450 0.0000 nan 100.00%
0 0 0 699.1337 699.1337 14 0.00% 0
CPXPARAM_MIP_Cuts_Gomory-FlowCovers:Gomory 0
CPXPARAM_MIP_Cuts_Gomory-FlowCovers:FlowCovers 0
26
Node Left Objective IInf Best_Integer Best_Bound ItCnt Gap
0+ 0 nan nan 945.0450 0.0000 nan 100.00%
0 0 735.4462 5 945.0450 735.4462 14 22.18%
0+ 0 nan nan 767.0483 735.4462 nan 4.12%
0 0 743.8134 5 767.0483 Fract:4 32 3.03%
0 0 749.0874 5 767.0483 Fract:5 44 2.34%
0 0 750.2359 4 767.0483 Fract:3 62 2.19%
0 0 751.7583 4 767.0483 Fract:2 80 1.99%
0 0 753.2928 3 767.0483 Fract:3 102 1.79%
0 0 754.8369 5 767.0483 Fract:3 126 1.59%
0 1 766.3523 2 767.0483 766.4858 126 0.07%
CPXPARAM_MIP_Cuts_Gomory-FlowCovers:Gomory 0
CPXPARAM_MIP_Cuts_Gomory-FlowCovers:FlowCovers 6
27
Node Left Objective IInf Best_Integer Best_Bound ItCnt Gap
0+ 0 nan nan 945.0450 0.0000 nan 100.00%
0 0 0 695.3404 695.3404 13 0.00% 0
CPXPARAM_MIP_Cuts_Gomory-FlowCovers:Gomory 0
CPXPARAM_MIP_Cuts_Gomory-FlowCovers:FlowCovers 0
28
Node Left Objective IInf Best_Integer Best_Bound ItCnt Gap
0+ 0 nan nan 1337.0922 0.0000 nan 100.00%
0 0 1130.7262 6 1337.0922 1130.7262 15 15.43%
0+ 0 nan nan 1168.3671 1130.7262 nan 3.22%
0 0 1138.9526 6 1168.3671 Cuts:11 57 2.52%
0 0 1142.9117 7 1168.3671 Cuts:8 95 2.18%
0 0 1144.3634 6 1168.3671 Cuts:7 117 2.05%
0 0 1147.5257 5 1168.3671 Cuts:6 151 1.78%
0 0 1148.4600 7 1168.3671 Fract:2 165 1.70%
0 0 1149.4448 6 1168.3671 Cuts:6 205 1.62%
0 0 1149.5685 6 1168.3671 Cuts:5 214 1.61%
0 2 1150.1076 5 1168.3671 1150.1240 214 1.56%
CPXPARAM_MIP_Cuts_Gomory-FlowCovers:Gomory 1
CPXPARAM_MIP_Cuts_Gomory-FlowCovers:FlowCovers 6
29
Node Left Objective IInf Best_Integer Best_Bound ItCnt Gap
0+ 0 nan nan 1337.0922 0.0000 nan 100.00%
0 0 0 1089.7407 1089.7407 13 0.00% 0
CPXPARAM_MIP_Cuts_Gomory-FlowCovers:Gomory 0
CPXPARAM_MIP_Cuts_Gomory-FlowCovers:FlowCovers 0
30
Node Left Objective IInf Best_Integer Best_Bound ItCnt Gap
0+ 0 nan nan 1337.0922 0.0000 nan 100.00%
0 0 1123.3320 6 1337.0922 1123.3320 14 15.99%
0+ 0 nan nan 1156.1713 1123.3320 nan 2.84%
0 0 1125.0447 6 1156.1713 Flowcuts:9 31 2.69%
0 0 1127.5043 7 1156.1713 Cuts:10 43 2.48%
0 0 1133.0020 6 1156.1713 Cuts:14 63 2.00%
0+ 0 nan nan 1154.6296 1133.0020 nan 1.87%
0 0 1142.4333 6 1154.6296 Cuts:4 95 1.06%
0 0 1142.5893 7 1154.6296 Cuts:6 109 1.04%
0 2 1146.8868 4 1154.6296 1148.7823 109 0.51%
CPXPARAM_MIP_Cuts_Gomory-FlowCovers:Gomory 5
CPXPARAM_MIP_Cuts_Gomory-FlowCovers:FlowCovers 2
31
Node Left Objective IInf Best_Integer Best_Bound ItCnt Gap
0+ 0 nan nan 1337.0922 0.0000 nan 100.00%
0 0 0 1076.4073 1076.4073 14 0.00% 0
CPXPARAM_MIP_Cuts_Gomory-FlowCovers:Gomory 0
CPXPARAM_MIP_Cuts_Gomory-FlowCovers:FlowCovers 0
32
Node Left Objective IInf Best_Integer Best_Bound ItCnt Gap
0+ 0 nan nan 1107.0587 0.0000 nan 100.00%
0 0 770.3383 6 1107.0587 770.3383 13 30.42%
0+ 0 nan nan 801.1518 770.3383 nan 3.85%
0 0 778.3807 6 801.1518 Cuts:10 29 2.84%
0 0 779.5957 6 801.1518 Fract:2 37 2.69%
0 0 785.5503 6 801.1518 Fract:3 57 1.95%
0 0 786.8675 5 801.1518 Fract:2 69 1.78%
0 0 787.2088 6 801.1518 Fract:3 79 1.74%
0 0 cutoff 801.1518 787.2088 79 1.74% 0
CPXPARAM_MIP_Cuts_Gomory-FlowCovers:Gomory 0
CPXPARAM_MIP_Cuts_Gomory-FlowCovers:FlowCovers 6
33
Node Left Objective IInf Best_Integer Best_Bound ItCnt Gap
0+ 0 nan nan 1107.0587 0.0000 nan 100.00%
0 0 0 718.2236 718.2236 13 0.00% 0
CPXPARAM_MIP_Cuts_Gomory-FlowCovers:Gomory 0
CPXPARAM_MIP_Cuts_Gomory-FlowCovers:FlowCovers 0
34
Node Left Objective IInf Best_Integer Best_Bound ItCnt Gap
0+ 0 nan nan 1107.0587 0.0000 nan 100.00%
0 0 778.8709 5 1107.0587 778.8709 12 29.65%
0+ 0 nan nan 805.4158 778.8709 nan 3.30%
0 0 804.4446 3 805.4158 Cuts:6 46 0.12%
0 0 cutoff 805.4158 57 0.00% 0 0
CPXPARAM_MIP_Cuts_Gomory-FlowCovers:Gomory 2
CPXPARAM_MIP_Cuts_Gomory-FlowCovers:FlowCovers 3
35
Node Left Objective IInf Best_Integer Best_Bound ItCnt Gap
0+ 0 nan nan 1107.0587 0.0000 nan 100.00%
0 0 0 827.1110 827.1110 12 0.00% 0
CPXPARAM_MIP_Cuts_Gomory-FlowCovers:Gomory 0
CPXPARAM_MIP_Cuts_Gomory-FlowCovers:FlowCovers 0
36
Node Left Objective IInf Best_Integer Best_Bound ItCnt Gap
0+ 0 nan nan 1237.1346 0.0000 nan 100.00%
0 0 870.1161 5 1237.1346 870.1161 13 29.67%
0+ 0 nan nan 1009.1813 870.1161 nan 13.78%
0 0 886.1907 6 1009.1813 Fract:5 40 12.19%
0+ 0 nan nan 988.0232 886.1907 nan 10.31%
0+ 0 nan nan 966.3009 886.1907 nan 8.29%
0 2 886.1907 6 966.3009 886.3744 40 8.27%
CPXPARAM_MIP_Cuts_Gomory-FlowCovers:Gomory 0
CPXPARAM_MIP_Cuts_Gomory-FlowCovers:FlowCovers 3
37
Node Left Objective IInf Best_Integer Best_Bound ItCnt Gap
0+ 0 nan nan 1237.1346 0.0000 nan 100.00%
0 0 0 827.4534 827.4534 12 0.00% 0
CPXPARAM_MIP_Cuts_Gomory-FlowCovers:Gomory 0
CPXPARAM_MIP_Cuts_Gomory-FlowCovers:FlowCovers 0
38
Node Left Objective IInf Best_Integer Best_Bound ItCnt Gap
0+ 0 nan nan 1237.1346 0.0000 nan 100.00%
0 0 891.5396 5 1237.1346 891.5396 13 27.94%
0+ 0 nan nan 934.0594 891.5396 nan 4.55%
0 0 902.0163 6 934.0594 Fract:5 39 3.43%
0 0 904.6099 6 934.0594 Fract:5 63 3.15%
0 0 910.4472 5 934.0594 Cuts:8 85 2.53%
0 0 913.2880 4 934.0594 Fract:3 115 2.22%
0 0 914.1598 5 934.0594 Fract:3 135 2.13%
0 0 914.2387 5 934.0594 Fract:2 143 2.12%
0 2 915.1672 2 934.0594 915.7281 143 1.96%
CPXPARAM_MIP_Cuts_Gomory-FlowCovers:Gomory 0
CPXPARAM_MIP_Cuts_Gomory-FlowCovers:FlowCovers 7
39
Node Left Objective IInf Best_Integer Best_Bound ItCnt Gap
0+ 0 nan nan 1237.1346 0.0000 nan 100.00%
0 0 0 894.2632 894.2632 13 0.00% 0
CPXPARAM_MIP_Cuts_Gomory-FlowCovers:Gomory 0
CPXPARAM_MIP_Cuts_Gomory-FlowCovers:FlowCovers 0
